SDVRP instances/custom_instances/p02_17_splitx10_0.vrp
NAME:p02_17_splitx10_
BEST_KNOWN: 0
COMMENT: 0
DIMENSION: 353
CAPACITY: 1400
EDGE_WEIGHT_FORMAT: FUNCTION
EDGE_WEIGHT_TYPE: EXACT_2D
NODE_COORD_SECTION
1 0.00000 0.00000
2 50 -38
3 50 -38
4 50 -38
5 29 2
6 29 2
7 29 2
8 29 2
9 29 2
10 29 2
11 29 2
12 29 2
13 -17 -22
14 -17 -22
15 -17 -22
16 -17 -22
17 -17 -22
18 27 40
19 25 37
20 25 37
21 25 37
22 -3 28
23 -3 28
24 -3 28
25 -3 28
26 -3 28
27 -4 8
28 -4 8
29 -4 8
30 -4 8
31 -4 8
32 -4 8
33 -35 24
34 -35 24
35 -35 24
36 -35 24
37 -35 24
38 38 3
39 38 3
40 -6 -8
41 -6 -8
42 -6 -8
43 -6 -8
44 -6 -8
45 -6 -8
46 -6 -30
47 -6 -30
48 -6 -30
49 7 -12
50 7 -12
51 7 -12
52 7 -12
53 7 -12
54 22 -16
55 -2 16
56 -2 16
57 -2 16
58 -2 16
59 -2 16
60 -2 16
61 -2 16
62 42 25
63 42 25
64 42 25
65 42 25
66 42 25
67 42 25
68 -21 -29
69 -21 -29
70 -21 -29
71 -21 -29
72 -21 -29
73 -21 -29
74 -21 -29
75 50 -16
76 50 -16
77 50 -16
78 50 -16
79 2 37
80 2 37
81 2 37
82 2 37
83 2 37
84 2 37
85 2 30
86 2 30
87 2 30
88 2 30
89 2 30
90 2 30
91 42 -42
92 42 -42
93 42 -42
94 42 -42
95 42 -42
96 34 32
97 34 32
98 34 32
99 -50 20
100 -50 20
101 -50 20
102 -50 20
103 -50 20
104 -50 20
105 -29 23
106 -29 23
107 -29 23
108 38 -9
109 38 -9
110 38 -9
111 38 -9
112 38 -9
113 38 -9
114 38 -9
115 38 -9
116 -33 -36
117 -33 -36
118 -33 -36
119 -33 -36
120 -6 26
121 -6 26
122 -6 26
123 -6 26
124 -6 26
125 -18 -42
126 -18 -42
127 -18 -42
128 -18 -42
129 -18 -42
130 -18 -42
131 -18 -42
132 23 -37
133 23 -37
134 23 -37
135 23 -37
136 23 -37
137 23 -37
138 -42 6
139 -42 6
140 -42 6
141 -42 6
142 31 21
143 31 21
144 31 21
145 31 21
146 31 21
147 31 21
148 36 18
149 36 18
150 -23 31
151 -23 31
152 -23 31
153 -24 21
154 -24 21
155 -24 21
156 -24 21
157 -24 21
158 -24 21
159 14 29
160 14 29
161 14 29
162 14 29
163 -16 -49
164 -16 -49
165 -16 -49
166 -16 -49
167 33 24
168 33 24
169 33 24
170 33 24
171 24 27
172 24 27
173 24 27
174 24 27
175 24 27
176 45 -21
177 45 -21
178 45 -21
179 45 -21
180 19 31
181 19 31
182 19 31
183 19 31
184 -12 24
185 -12 24
186 -12 24
187 -12 24
188 -50 21
189 -50 21
190 -50 21
191 20 -28
192 20 -28
193 20 -28
194 20 -28
195 20 -28
196 8 23
197 8 23
198 8 23
199 8 23
200 8 23
201 -23 -31
202 -23 -31
203 -23 -31
204 -23 -31
205 -23 -31
206 -23 -31
207 -17 25
208 -17 25
209 -17 25
210 -17 25
211 -17 25
212 -29 15
213 -29 15
214 -29 15
215 -29 15
216 -29 15
217 5 38
218 5 38
219 5 38
220 5 38
221 5 38
222 5 38
223 5 38
224 12 -1
225 12 -1
226 12 -1
227 12 -1
228 12 -1
229 12 -1
230 -1 14
231 -1 14
232 -1 14
233 -1 14
234 -1 14
235 47 -1
236 47 -1
237 47 -1
238 47 -1
239 47 -1
240 47 -1
241 47 -1
242 43 -13
243 43 -13
244 43 -13
245 43 -13
246 26 -3
247 26 -3
248 26 -3
249 25 13
250 25 13
251 25 13
252 25 13
253 -12 -22
254 -12 -22
255 -12 -22
256 -12 -22
257 -12 -22
258 -12 -22
259 19 16
260 19 16
261 19 16
262 19 16
263 19 16
264 19 16
265 19 16
266 19 16
267 34 -36
268 34 -36
269 34 -36
270 -3 -12
271 -3 -12
272 -3 -12
273 -3 -12
274 -3 -12
275 -3 -12
276 23 -22
277 23 -22
278 23 -22
279 23 -22
280 23 -22
281 23 -22
282 23 -22
283 -37 -11
284 -37 -11
285 -37 -11
286 -37 -11
287 -37 -11
288 -15 16
289 -15 16
290 -15 16
291 -15 16
292 -15 16
293 -15 16
294 -43 -18
295 -43 -18
296 25 -50
297 25 -50
298 25 -50
299 20 38
300 20 38
301 20 38
302 0 -41
303 0 -41
304 0 -41
305 39 1
306 39 1
307 39 1
308 39 1
309 39 1
310 -13 -12
311 -13 -12
312 -13 -12
313 -13 -12
314 37 3
315 37 3
316 37 3
317 17 33
318 17 33
319 17 33
320 17 33
321 17 33
322 17 33
323 17 -48
324 -8 -7
325 -8 -7
326 -8 -7
327 -8 -7
328 -8 -7
329 -24 -42
330 -24 -42
331 -24 -42
332 -24 -42
333 -24 -42
334 25 29
335 25 29
336 25 29
337 25 29
338 25 29
339 -28 -2
340 -28 -2
341 -28 -2
342 -28 -2
343 -28 -2
344 46 0
345 46 0
346 46 0
347 41 22
348 41 22
349 41 22
350 41 22
351 41 22
352 41 22
353 41 22
DEMAND_SECTION
1 0
2 280
3 280
4 140
5 280
6 280
7 70
8 14
9 14
10 14
11 14
12 4
13 280
14 70
15 14
16 14
17 12
18 280
19 280
20 280
21 70
22 280
23 280
24 14
25 14
26 2
27 280
28 70
29 14
30 14
31 14
32 8
33 140
34 14
35 14
36 14
37 8
38 280
39 280
40 280
41 280
42 14
43 14
44 14
45 8
46 280
47 140
48 70
49 280
50 140
51 70
52 14
53 6
54 280
55 280
56 280
57 14
58 14
59 14
60 14
61 4
62 280
63 280
64 14
65 14
66 14
67 8
68 280
69 280
70 14
71 14
72 14
73 14
74 4
75 280
76 14
77 14
78 12
79 280
80 280
81 14
82 14
83 14
84 8
85 280
86 280
87 70
88 14
89 14
90 2
91 280
92 280
93 70
94 14
95 6
96 280
97 140
98 10
99 280
100 140
101 14
102 14
103 14
104 8
105 280
106 140
107 10
108 280
109 140
110 70
111 14
112 14
113 14
114 14
115 4
116 140
117 70
118 14
119 6
120 280
121 140
122 14
123 14
124 12
125 280
126 280
127 14
128 14
129 14
130 14
131 4
132 280
133 70
134 14
135 14
136 14
137 8
138 280
139 280
140 70
141 10
142 280
143 14
144 14
145 14
146 14
147 4
148 280
149 140
150 280
151 280
152 70
153 280
154 280
155 14
156 14
157 14
158 8
159 280
160 140
161 70
162 10
163 280
164 140
165 14
166 6
167 280
168 280
169 14
170 6
171 280
172 14
173 14
174 14
175 8
176 140
177 14
178 14
179 2
180 280
181 14
182 14
183 12
184 280
185 280
186 14
187 6
188 140
189 70
190 10
191 280
192 70
193 14
194 14
195 2
196 280
197 280
198 14
199 14
200 2
201 280
202 140
203 70
204 14
205 14
206 2
207 280
208 140
209 70
210 14
211 6
212 140
213 70
214 14
215 14
216 12
217 280
218 70
219 14
220 14
221 14
222 14
223 4
224 140
225 14
226 14
227 14
228 14
229 4
230 280
231 280
232 70
233 14
234 6
235 280
236 140
237 14
238 14
239 14
240 14
241 4
242 280
243 14
244 14
245 2
246 280
247 14
248 6
249 280
250 280
251 70
252 10
253 280
254 140
255 70
256 14
257 14
258 2
259 280
260 140
261 70
262 14
263 14
264 14
265 14
266 4
267 280
268 140
269 70
270 140
271 14
272 14
273 14
274 14
275 4
276 280
277 140
278 70
279 14
280 14
281 14
282 8
283 280
284 280
285 14
286 14
287 2
288 280
289 140
290 70
291 14
292 14
293 2
294 280
295 140
296 280
297 140
298 70
299 280
300 70
301 10
302 280
303 140
304 70
305 280
306 70
307 14
308 14
309 12
310 140
311 14
312 14
313 2
314 280
315 70
316 10
317 280
318 70
319 14
320 14
321 14
322 8
323 280
324 280
325 70
326 14
327 14
328 2
329 280
330 140
331 14
332 14
333 2
334 280
335 280
336 14
337 14
338 2
339 280
340 70
341 14
342 14
343 12
344 280
345 14
346 6
347 280
348 280
349 14
350 14
351 14
352 14
353 4
DEPOT_SECTION
1
-1
EOF