SDVRP instances/custom_instances/p02_17_splitx10_0.sol
352 -3 1 2 90 92 93 91 94 -10 9 8 7 6 11 5 4 245 246 247 225 226 223 227 224 228 -20 19 18 17 299 300 298 317 321 318 319 320 -30 28 29 26 185 183 184 186 206 210 208 207 -31 27 209 149 150 151 34 33 35 32 36 104 105 106 -40 39 44 43 42 41 -47 45 46 202 201 203 200 72 69 67 326 325 324 -48 51 53 176 178 175 177 77 74 75 76 242 244 241 243 -49 322 296 297 295 268 266 267 -52 50 193 194 191 192 190 132 134 133 136 131 135 277 281 279 278 280 276 275 -59 56 60 54 55 58 57 231 230 232 233 229 -70 68 73 71 205 204 118 117 115 116 331 330 332 329 328 128 125 126 130 127 129 271 -84 21 24 25 23 22 122 119 120 121 123 -88 86 87 85 89 80 82 78 83 81 79 217 220 221 219 218 222 216 -114 110 107 109 111 112 113 108 234 238 237 239 240 236 235 344 345 343 -138 137 140 139 98 101 100 99 102 103 188 187 189 -142 145 146 143 141 144 147 148 251 250 248 249 -169 168 167 166 95 96 97 258 261 263 262 264 -180 181 182 179 335 336 337 333 334 174 172 170 173 171 259 -198 195 196 199 197 158 159 161 160 316 -213 212 211 214 215 152 153 154 157 155 156 288 292 290 287 289 291 -257 254 252 255 256 253 16 15 13 12 14 311 309 312 310 323 327 -260 265 62 66 63 61 64 65 352 346 351 350 349 348 347 -274 270 273 269 272 124 165 162 164 163 303 302 301 -293 294 284 282 286 283 285 338 341 339 340 342 -307 304 305 306 308 37 38 313 314 315 0 





OBJ=
2240.415
BEST_KNOWN=
0.000